p cnf 12 50 
6 7 1 0
7 9 12 0
-4 -1 -6 0
7 3 11 0
12 2 4 0
10 -7 11 0
3 11 6 0
-6 7 -1 0
5 7 -1 0
-10 -7 1 0
-12 -6 -4 0
-12 -9 10 0
1 9 10 0
-11 12 8 0
6 9 12 0
-2 -1 3 0
11 12 -2 0
-1 -2 7 0
4 -5 3 0
-10 -8 1 0
11 -12 4 0
4 3 12 0
-3 -7 -12 0
-5 -3 -11 0
-3 11 -6 0
-6 -4 -12 0
-2 -10 1 0
9 -5 -12 0
-9 -12 -3 0
11 -9 -1 0
4 3 -10 0
12 -6 -3 0
6 3 -9 0
-6 3 4 0
8 -7 -3 0
5 -9 -3 0
2 11 -9 0
-7 -2 11 0
-1 3 -9 0
4 8 -5 0
-2 11 6 0
-8 -12 -7 0
-8 -1 4 0
11 -1 6 0
-7 12 2 0
5 -9 7 0
3 6 -2 0
5 6 11 0
-8 5 3 0
-7 9 -12 0
